HUN,8,6,917
1,30,4,25,3,24,5,29,2,28,0,30
2,24,4,23,0,30,1,30,5,25,3,30
1,25,0,21,5,29,3,29,4,23,2,22
4,24,1,21,2,25,5,23,0,26,3,21
1,28,5,24,3,26,4,25,0,22,2,23
4,25,0,28,1,24,5,28,3,21,2,25
2,27,3,26,5,29,4,22,1,23,0,24
3,21,0,30,4,21,5,21,2,26,1,28
